solution status: optimal solution found
objective value:                     124070.409479587
d11(0,0)                                            1 	(obj:0)
d11(1,1)                                            1 	(obj:0)
d11(1,2)                                            1 	(obj:0)
d11(2,3)                                            1 	(obj:0)
d11(2,5)                                            1 	(obj:0)
d11(3,9)                                            1 	(obj:0)
d11(3,11)                                           1 	(obj:0)
d11(3,13)                                           1 	(obj:0)
d12(3,8)                                            1 	(obj:0)
d12(3,10)                                           1 	(obj:0)
d12(3,12)                                           1 	(obj:0)
d12(3,14)                                           1 	(obj:0)
d21(2,3)                                            1 	(obj:0)
d21(3,7)                                            1 	(obj:0)
d21(3,8)                                            1 	(obj:0)
d21(3,11)                                           1 	(obj:0)
y2(3,8)                              1385.48851144895 	(obj:0)
y2(3,10)                             1385.48851144895 	(obj:0)
y2(3,12)                             1385.48851144895 	(obj:0)
y2(3,14)                             1385.48851144895 	(obj:0)
STE(1,1)                             1228.49999999934 	(obj:0)
STE(0,0)                                         4725 	(obj:0)
STE(1,2)                             2886.74989888815 	(obj:0)
STE(2,3)                            -807.749898889508 	(obj:0)
STE(2,4)                             850.499999999338 	(obj:0)
STE(2,5)                             850.499999999309 	(obj:0)
STE(2,6)                             2508.74989888815 	(obj:0)
STE(3,7)                            -1185.74989888951 	(obj:0)
STE(3,8)                             130.464186986998 	(obj:0)
STE(3,9)                             472.499999999338 	(obj:0)
STE(3,10)                            1788.71408587584 	(obj:0)
STE(3,11)                            472.499999999248 	(obj:0)
STE(3,12)                            1788.71408587581 	(obj:0)
STE(3,13)                            2130.74989888815 	(obj:0)
STE(3,14)                            3446.96398476466 	(obj:0)
AVE(2)                               3315.65537776224 	(obj:0)
WB(3)                                3315.65799770399 	(obj:0)
y1(1,1)                               2806.6500000006 	(obj:0)
y1(1,2)                              1314.22509100066 	(obj:0)
y1(2,3)                              1492.42490899996 	(obj:0)
y1(2,5)                              1492.42490899996 	(obj:0)
AVE(3)                               3315.65799770399 	(obj:0)
WG(1)                                3248.33172520918 	(obj:10)
WG(2)                                3315.65537776224 	(obj:10)
BG(1)                                2289.00678499555 	(obj:10)
BG(2)                                880.637121217351 	(obj:10)
BG(3)                                2673.40993877551 	(obj:10)
AVE(1)                               3248.33172520918 	(obj:0)
